牛客/2019牛客暑期多校训练营/数据/9_D_Knapsack Cryptosystem/15.in
36 386582051014200
41352806111080 8640078061814 923792098995 1847584197990 45971766606055 12933089385930 35430048932669 18041781981877 36355457721031 21958022100286 44785780885985 3498347014056 44878636844375 34589620016287 9536303858374 19277015241461 14215083664798 40425826437124 2248532185356 12312717048292 39873995182875 3955853619888 2739100465110 9568272937252 49525480450586 54248333159680 3189720419562 46944075323080 620954564410 20128304432487 24776173455480 22296216734328 51762276881651 16072519027041 9762628980713 26545104820369
